c ---- [ banner ] ------------------------------------------------------------
c
c Kissat SAT Solver
c 
c Copyright (c) 2021-2024 Armin Biere University of Freiburg
c Copyright (c) 2019-2021 Armin Biere Johannes Kepler University Linz
c 
c Version 4.0.1 43f02cf3e992cb44653b35e5cb26f93281552ae0
c gcc (Ubuntu 13.2.0-23ubuntu4) 13.2.0 -W -Wall -O3 -DNDEBUG
c Thu Sep 12 12:27:46 CEST 2024 Linux abryzen9 6.8.0-41-generic x86_64
c
c ---- [ parsing ] -----------------------------------------------------------
c
c opened and reading DIMACS file:
c
c   /data/artifact/AMulet2.0_artifact/exp4/cnf_compress2rs_64/64_64_U_SP_DT_KS_GenMul_compress2rs.cnf
c
c parsed 'p cnf 35040 136662' header
c closing input after reading 2657541 bytes (3 MB)
c finished parsing after 0.04 seconds
c
c ---- [ options ] -----------------------------------------------------------
c
c --stable=0                       (different from default '1')
c
c ---- [ solving ] -----------------------------------------------------------
c
c  seconds switched rate     size/glue tier1  binary           remaining
c         MB reductions conflicts size  tier2     irredundant
c          level restarts redundant glue  trail           variables
c
c *  0.04 10 0 0 0  0 0   0   0 0.0 0 0 0 0 0% 28297 108363 35037 100%
c (  0.06 12 0 0 0  0 0   0   0 0.0 0 0 0 0 0% 28297 108363 35037 100%
c .  0.07 13 0 0 0  0 0   0   0 0.0 0 0 0 0 0% 28293 108363 35037 100%
c c  0.17 21 0 0 0  0 0   0   0 0.0 0 0 0 0 0% 35198 94555 31585 90%
c d  0.18 21 0 0 0  0 0   0   0 0.0 0 0 0 0 0% 28294 94555 31585 90%
c =  0.24 21 0 0 0  0 0   0   0 0.0 0 0 0 0 0% 28810 94555 31327 89%
c d  0.25 21 0 0 0  0 0   0   0 0.0 0 0 0 0 0% 28294 94555 31327 89%
c f  0.36 19 0 0 0  0 0   0   0 0.0 0 0 0 0 0% 31044 90155 32977 94%
c e  0.50 27 0 0 0  0 0   0   0 0.0 0 0 0 0 0% 9654 103621 22094 63%
c )  0.50 27 0 0 0  0 0   0   0 0.0 0 0 0 0 0% 9654 103621 22094 63%
c {  0.52 27 0 0 0  0 0   0   0 0.0 0 0 2 6 0% 9654 103621 22094 63%
c -  0.78 29 136 0 1 217 28 1000 742 2.5 13 5 3 11 21% 9700 103621 22094 63%
c -  1.12 29 296 0 2 355 37 2002 1516 3.8 27 7 3 11 24% 9708 103621 22094 63%
c c  1.27 22 356 0 2 385 36 2502 1943 3.8 27 7 3 12 23% 9720 103585 22086 63%
c d  1.28 22 356 0 2 385 36 2502 1942 3.8 27 7 3 12 23% 9704 103585 22086 63%
c u  1.30 22 356 0 2 385 36 2502 1483 3.8 27 7 3 12 23% 9708 103585 22086 63%
c v  1.33 22 356 0 2 385 36 2502 1249 3.8 27 7 3 12 23% 9708 103585 22086 63%
c w  1.35 22 356 0 2 385 36 2502 1247 3.8 27 7 3 12 23% 9708 103585 22086 63%
c x  1.37 22 356 0 2 385 36 2502 1247 3.8 27 7 3 12 23% 9708 103582 22086 63%
c =  1.45 22 356 0 2 385 36 2502 1247 3.8 27 7 3 12 23% 9958 103580 21961 63%
c
c  seconds   switched   rate       size/glue tier1     binary          remaining
c         MB  reductions conflicts       size  tier2      irredundant
c           level restarts    redundant    glue    trail          variables
c
c d  1.46 22 356 0 2 385 36 2502 1242 3.8 27 7 3 12 23% 9708 103580 21961 63%
c t  1.47 22 356 0 2 385 36 2502 1242 3.8 27 7 3 12 23% 9707 103580 21961 63%
c f  1.50 22 356 0 2 385 36 2502 1242 3.8 27 7 3 12 23% 10375 102303 22570 64%
c u  1.54 22 356 0 2 385 36 2502 1207 3.8 27 7 3 12 23% 10376 102303 22570 64%
c v  1.55 22 356 0 2 385 36 2502 1170 3.8 27 7 3 12 23% 10376 102303 22570 64%
c w  1.59 27 356 0 2 385 36 2502 1163 3.8 27 7 3 12 23% 10376 102303 22570 64%
c =  1.67 27 356 0 2 385 36 2502 1163 3.8 27 7 3 12 23% 10702 102303 22407 64%
c d  1.67 27 356 0 2 385 36 2502 1149 3.8 27 7 3 12 23% 10320 102303 22407 64%
c f  1.72 27 356 0 2 385 36 2502 1149 3.8 27 7 3 12 23% 10732 101685 22613 65%
c -  1.90 27 362 0 3 455 36 3416 1679 3.9 27 7 3 12 23% 10760 101685 22613 65%
c -  2.44 27 316 0 4 653 34 5150 2695 4.1 30 7 2 11 26% 10832 101685 22613 65%
c -  2.92 27 374 0 5 791 33 7150 3854 4.1 28 7 2 10 26% 10905 101685 22613 65%
c c  3.10 27 372 0 5 824 33 7707 4251 4.3 29 7 2 10 26% 10949 101508 22559 64%
c d  3.11 27 372 0 5 824 33 7707 4225 4.3 29 7 2 10 26% 10839 101508 22558 64%
c u  3.14 27 372 0 5 824 33 7707 3420 4.3 29 7 2 10 26% 10856 101508 22558 64%
c v  3.18 27 372 0 5 824 33 7707 2899 4.3 29 7 2 10 26% 10857 101508 22558 64%
c w  3.24 27 372 0 5 824 33 7707 2891 4.3 29 7 2 10 26% 10857 101508 22558 64%
c x  3.27 27 372 0 5 824 33 7707 2891 4.3 29 7 2 10 26% 10857 101212 22558 64%
c =  3.40 27 372 0 5 824 33 7707 2891 4.3 29 7 2 10 26% 11705 101212 22134 63%
c d  3.41 27 372 0 5 824 33 7707 2871 4.3 29 7 2 10 26% 10720 101212 22133 63%
c
c  seconds   switched   rate       size/glue tier1     binary           remaining
c         MB  reductions conflicts       size  tier2       irredundant
c           level restarts    redundant    glue    trail           variables
c
c t  3.42 27 372 0 5 824 33 7707 2871 4.3 29 7 2 10 26% 10714 101212 22133 63%
c f  3.46 27 372 0 5 824 33 7707 2871 4.3 29 7 2 10 26% 12468 98581 23010 66%
c u  3.55 27 372 0 5 824 33 7707 2713 4.3 29 7 2 10 26% 12470 98581 23010 66%
c v  3.58 27 372 0 5 824 33 7707 2607 4.3 29 7 2 10 26% 12470 98581 23010 66%
c w  3.64 27 372 0 5 824 33 7707 2601 4.3 29 7 2 10 26% 12470 98581 23010 66%
c x  3.68 27 372 0 5 824 33 7707 2601 4.3 29 7 2 10 26% 12470 95168 23010 66%
c =  3.81 27 372 0 5 824 33 7707 2601 4.3 29 7 2 10 26% 13056 95168 22717 65%
c d  3.82 27 372 0 5 824 33 7707 2597 4.3 29 7 2 10 26% 12378 95168 22717 65%
c t  3.84 27 372 0 5 824 33 7707 2597 4.3 29 7 2 10 26% 12339 95168 22717 65%
c f  3.89 27 372 0 5 824 33 7707 2597 4.3 29 7 2 10 26% 12445 95009 22770 65%
c -  4.48 27 367 0 6 1045 33 9386 3547 4.5 31 7 2 9 26% 12482 95009 22770 65%
c o  4.75 27 363 0 6 1117 33 10075 4104 4.5 32 7 2 9 26% 12517 95009 22770 65%
c -  5.38 27 350 0 7 1268 34 11835 4953 4.6 36 8 2 9 27% 12557 95009 22770 65%
c s  5.66 27 349 0 7 1316 33 12506 5549 4.7 36 8 2 9 28% 12573 93072 22770 65%
c e  5.78 27 349 0 7 1316 33 12506 5549 4.7 36 8 2 9 28% 10250 94687 21379 61%
c s  5.79 27 349 0 7 1316 33 12506 5549 4.7 36 8 2 9 28% 10291 93491 21379 61%
c e  5.81 27 349 0 7 1316 33 12506 5549 4.7 36 8 2 9 28% 10244 93537 21360 61%
c ^  5.81 27 349 0 7 1316 33 12506 5549 4.7 36 8 2 9 28% 10244 93537 21360 61%
c -  6.52 27 336 0 8 1502 33 14480 5871 4.9 40 8 2 8 28% 10278 93537 21360 61%
c d  6.80 27 345 0 8 1588 33 15784 7033 4.9 39 8 2 8 28% 10073 93537 21217 61%
c
c  seconds   switched    rate        size/glue tier1    binary          remaining
c         MB  reductions   conflicts       size  tier2      irredundant
c           level  restarts     redundant    glue   trail          variables
c
c u  6.83 27 345 0 8 1588 33 15784 5679 4.9 39 8 2 8 28% 10091 93537 21217 61%
c v  6.86 27 345 0 8 1588 33 15784 4882 4.9 39 8 2 8 28% 10092 93537 21217 61%
c w  6.93 27 345 0 8 1588 33 15784 4869 4.9 39 8 2 8 28% 10092 93537 21217 61%
c x  6.97 27 345 0 8 1588 33 15784 4869 4.9 39 8 2 8 28% 10092 91310 21217 61%
c =  7.15 27 345 0 8 1588 33 15784 4869 4.9 39 8 2 8 28% 12462 91310 20032 57%
c d  7.16 27 345 0 8 1588 33 15784 4700 4.9 39 8 2 8 28% 9600 91310 20032 57%
c t  7.17 27 345 0 8 1588 33 15784 4700 4.9 39 8 2 8 28% 9585 91310 20032 57%
c f  7.21 27 345 0 8 1588 33 15784 4700 4.9 39 8 2 8 28% 9614 91250 20047 57%
c u  7.27 27 345 0 8 1588 33 15784 4289 4.9 39 8 2 8 28% 9616 91250 20047 57%
c v  7.29 27 345 0 8 1588 33 15784 4146 4.9 39 8 2 8 28% 9616 91250 20047 57%
c w  7.37 27 345 0 8 1588 33 15784 4114 4.9 39 8 2 8 28% 9616 91250 20047 57%
c x  7.40 27 345 0 8 1588 33 15784 4113 4.9 39 8 2 8 28% 9617 90339 20047 57%
c =  7.57 27 345 0 8 1588 33 15784 4113 4.9 39 8 2 8 28% 11619 90339 19046 54%
c d  7.58 27 345 0 8 1588 33 15784 4048 4.9 39 8 2 8 28% 9304 90339 19046 54%
c t  7.59 27 345 0 8 1588 33 15784 4048 4.9 39 8 2 8 28% 9303 90339 19046 54%
c f  7.61 27 345 0 8 1588 33 15784 4048 4.9 39 8 2 8 28% 9305 90335 19047 54%
c -  7.79 27 340 0 9 1655 31 17308 4736 4.8 37 8 2 8 28% 9327 90335 19047 54%
c o  8.15 27 332 0 9 1812 30 20190 7405 4.5 35 8 2 8 28% 9350 90335 19047 54%
c -  8.21 27 332 0 10 1845 30 20309 6579 4.6 35 8 2 8 28% 9350 90335 19047 54%
c -  8.74 29 322 0 11 2120 30 23471 8258 4.5 34 8 2 8 28% 9398 90335 19047 54%
c
c  seconds   switched     rate        size/glue tier1    binary         remaining
c         MB   reductions   conflicts       size  tier2     irredundant
c           level   restarts     redundant    glue   trail         variables
c
c s  8.90 29 321 0 11 2172 30 25007 9567 4.4 33 7 2 8 27% 9434 88373 19047 54%
c e  8.99 29 321 0 11 2172 30 25007 9567 4.4 33 7 2 8 27% 8226 91535 16327 47%
c s  9.01 29 321 0 11 2172 30 25007 9567 4.4 33 7 2 8 27% 8227 86974 16327 47%
c e  9.04 29 321 0 11 2172 30 25007 9567 4.4 33 7 2 8 27% 8220 86990 16317 47%
c ^  9.04 29 321 0 11 2172 30 25007 9567 4.4 33 7 2 8 27% 8220 86990 16317 47%
c -  9.30 29 306 0 12 2242 28 26787 7956 4.3 32 7 2 8 28% 8240 86989 16317 47%
c d  9.32 29 305 0 12 2244 28 26911 8045 4.3 32 7 2 8 28% 8173 86987 16274 46%
c u  9.35 29 305 0 12 2244 28 26911 6564 4.3 32 7 2 8 28% 8193 86987 16274 46%
c v  9.38 29 305 0 12 2244 28 26911 5589 4.3 32 7 2 8 28% 8193 86987 16274 46%
c w  9.38 29 305 0 12 2244 28 26911 5581 4.3 32 7 2 8 28% 8193 86987 16274 46%
c x  9.45 29 305 0 12 2244 28 26911 5577 4.3 32 7 2 8 28% 8193 83808 16274 46%
c =  9.65 29 305 0 12 2244 28 26911 5577 4.3 32 7 2 8 28% 10401 83798 15170 43%
c d  9.65 29 305 0 12 2244 28 26911 5333 4.3 32 7 2 8 28% 8128 83798 15170 43%
c t  9.66 29 305 0 12 2244 28 26911 5333 4.3 32 7 2 8 28% 8121 83798 15170 43%
c f  9.72 29 305 0 12 2244 28 26911 5333 4.3 32 7 2 8 28% 8114 83778 15177 43%
c u  9.74 29 305 0 12 2244 28 26911 4763 4.3 32 7 2 8 28% 8114 83778 15177 43%
c v  9.76 29 305 0 12 2244 28 26911 4619 4.3 32 7 2 8 28% 8114 83778 15177 43%
c w  9.76 29 305 0 12 2244 28 26911 4617 4.3 32 7 2 8 28% 8114 83778 15177 43%
c x  9.83 29 305 0 12 2244 28 26911 4617 4.3 32 7 2 8 28% 8115 74279 15177 43%
c =  9.99 29 305 0 12 2244 28 26911 4617 4.3 32 7 2 8 28% 8429 74277 15020 43%
c
c  seconds   switched     rate        size/glue tier1    binary         remaining
c         MB   reductions   conflicts       size  tier2     irredundant
c           level   restarts     redundant    glue   trail         variables
c
c d 10.00 29 305 0 12 2244 28 26911 4609 4.3 32 7 2 8 28% 8110 74277 15020 43%
c - 10.36 29 281 0 13 2363 26 30252 6582 4.0 29 7 2 8 28% 8140 74274 15020 43%
c - 10.59 29 260 0 14 2470 24 33857 8395 3.8 27 7 2 8 27% 8186 74273 15020 43%
c - 11.14 29 251 0 15 2775 24 37598 10285 3.8 27 7 2 8 27% 8201 74271 15020 43%
c o 11.52 29 240 0 15 2976 24 40190 12697 3.7 27 7 2 8 27% 8207 74270 15020 43%
c c 11.74 29 238 0 15 3086 24 41255 13697 3.7 27 7 2 8 28% 8235 74083 14969 43%
c d 11.74 29 238 0 15 3086 24 41255 13477 3.7 27 7 2 8 28% 8133 74083 14969 43%
c u 11.77 29 238 0 15 3086 24 41255 11621 3.7 27 7 2 8 28% 8147 74083 14969 43%
c v 11.83 29 238 0 15 3086 24 41255 10686 3.7 27 7 2 8 28% 8147 74083 14969 43%
c w 11.86 29 238 0 15 3086 24 41255 10684 3.7 27 7 2 8 28% 8147 74083 14969 43%
c x 11.90 29 238 0 15 3086 24 41255 10683 3.7 27 7 2 8 28% 8147 73085 14969 43%
c = 12.09 29 238 0 15 3086 24 41255 10683 3.7 27 7 2 8 28% 8571 73085 14757 42%
c d 12.09 29 238 0 15 3086 24 41255 10412 3.7 27 7 2 8 28% 8108 73085 14757 42%
c u 12.14 29 238 0 15 3086 24 41255 9968 3.7 27 7 2 8 28% 8109 73085 14757 42%
c v 12.20 29 238 0 15 3086 24 41255 9145 3.7 27 7 2 8 28% 8109 73085 14757 42%
c w 12.25 29 238 0 15 3086 24 41255 9140 3.7 27 7 2 8 28% 8109 73085 14757 42%
c x 12.29 29 238 0 15 3086 24 41255 9139 3.7 27 7 2 8 28% 8109 71532 14757 42%
c = 12.46 29 238 0 15 3086 24 41255 9139 3.7 27 7 2 8 28% 8119 71532 14752 42%
c d 12.46 29 238 0 15 3086 24 41255 9138 3.7 27 7 2 8 28% 8108 71532 14752 42%
c - 12.51 29 238 0 16 3090 24 41470 8125 3.7 26 7 2 8 28% 8108 71532 14752 42%
c
c  seconds   switched     rate         size/glue tier1    binary         remaining
c         MB   reductions   conflicts        size  tier2     irredundant
c           level   restarts      redundant    glue   trail         variables
c
c - 12.98 29 228 0 17 3304 23 45470 10267 3.6 25 7 2 8 28% 8125 71531 14752 42%
c - 13.52 29 222 0 18 3607 23 49596 12481 3.5 25 7 2 7 28% 8151 71529 14752 42%
c s 13.94 29 220 0 18 3860 23 52110 14816 3.5 24 7 2 7 28% 8162 71134 14752 42%
c e 14.02 29 220 0 18 3860 23 52110 14816 3.5 24 7 2 7 28% 6882 73611 13582 39%
c s 14.02 29 220 0 18 3860 23 52110 14816 3.5 24 7 2 7 28% 6884 73247 13582 39%
c e 14.03 29 220 0 18 3860 23 52110 14816 3.5 24 7 2 7 28% 6883 73249 13578 39%
c ^ 14.03 29 220 0 18 3860 23 52110 14816 3.5 24 7 2 7 28% 6883 73249 13578 39%
c - 14.24 29 217 0 19 3938 22 53838 12659 3.4 24 7 2 7 28% 6888 73249 13578 39%
c - 14.61 29 211 0 20 4162 22 58196 14600 3.3 23 7 2 7 28% 6952 73249 13578 39%
c c 14.74 29 209 0 20 4232 22 58911 15212 3.3 23 7 2 7 28% 6999 72912 13518 39%
c d 14.74 29 209 0 20 4232 22 58911 14938 3.3 23 7 2 7 28% 6879 72912 13518 39%
c u 14.80 29 209 0 20 4232 22 58911 12604 3.3 23 7 2 7 28% 6887 72912 13518 39%
c v 14.84 29 209 0 20 4232 22 58911 11073 3.3 23 7 2 7 28% 6889 72912 13518 39%
c w 14.87 29 209 0 20 4232 22 58911 11037 3.3 23 7 2 7 28% 6889 72912 13518 39%
c x 14.94 29 209 0 20 4232 22 58911 11037 3.3 23 7 2 7 28% 6889 72703 13518 39%
c = 15.19 29 209 0 20 4232 22 58911 11037 3.3 23 7 2 7 28% 6959 72703 13483 38%
c d 15.19 29 209 0 20 4232 22 58911 11000 3.3 23 7 2 7 28% 6882 72703 13481 38%
c t 15.20 29 209 0 20 4232 22 58911 11000 3.3 23 7 2 7 28% 6875 72703 13481 38%
c f 15.23 29 209 0 20 4232 22 58911 11000 3.3 23 7 2 7 28% 6883 72665 13487 38%
c u 15.31 29 209 0 20 4232 22 58911 10608 3.3 23 7 2 7 28% 6890 72665 13487 38%
c
c  seconds   switched     rate         size/glue tier1    binary         remaining
c         MB   reductions   conflicts        size  tier2     irredundant
c           level   restarts      redundant    glue   trail         variables
c
c v 15.35 29 209 0 20 4232 22 58911 10316 3.3 23 7 2 7 28% 6891 72665 13487 38%
c w 15.38 29 209 0 20 4232 22 58911 10301 3.3 23 7 2 7 28% 6891 72665 13487 38%
c = 15.54 29 209 0 20 4232 22 58911 10301 3.3 23 7 2 7 28% 6909 72665 13478 38%
c d 15.55 29 209 0 20 4232 22 58911 10292 3.3 23 7 2 7 28% 6885 72665 13476 38%
c - 16.40 29 202 0 21 4563 21 62668 12184 3.2 22 7 2 7 28% 6909 72665 13476 38%
c - 17.42 29 194 0 22 5031 21 67250 14643 3.1 22 7 2 7 28% 6938 72665 13476 38%
c o 18.22 29 192 0 22 5435 22 70192 17321 3.1 22 7 2 7 28% 6970 72665 13476 38%
c - 18.66 29 194 0 23 5646 22 71945 16659 3.1 23 7 2 6 28% 6989 72665 13476 38%
c - 19.63 29 190 0 24 6043 22 76740 18426 3.1 23 7 2 6 28% 7026 72665 13476 38%
c d 20.15 29 192 0 24 6271 22 80001 20905 3.1 22 7 2 6 28% 6912 72665 13403 38%
c u 20.26 29 192 0 24 6271 22 80001 17669 3.1 22 7 2 6 28% 6940 72665 13403 38%
c v 20.37 29 192 0 24 6271 22 80001 15615 3.1 22 7 2 6 28% 6944 72665 13403 38%
c w 20.46 29 192 0 24 6271 22 80001 15607 3.1 22 7 2 6 28% 6944 72665 13403 38%
c x 20.55 29 192 0 24 6271 22 80001 15607 3.1 22 7 2 6 28% 6944 72002 13403 38%
c = 21.02 29 192 0 24 6271 22 80001 15607 3.1 22 7 2 6 28% 7682 71996 13034 37%
c d 21.03 29 192 0 24 6271 22 80001 15217 3.1 22 7 2 6 28% 6883 71996 13032 37%
c t 21.05 29 192 0 24 6271 22 80001 15217 3.1 22 7 2 6 28% 6877 71996 13032 37%
c c 21.12 29 192 0 24 6271 22 80001 15217 3.1 22 7 2 6 28% 6881 71980 13030 37%
c d 21.13 29 192 0 24 6271 22 80001 15217 3.1 22 7 2 6 28% 6877 71980 13030 37%
c u 21.20 29 192 0 24 6271 22 80001 14306 3.1 22 7 2 6 28% 6881 71980 13030 37%
c
c  seconds   switched     rate         size/glue tier1    binary         remaining
c         MB   reductions   conflicts        size  tier2     irredundant
c           level   restarts      redundant    glue   trail         variables
c
c v 21.26 29 192 0 24 6271 22 80001 13918 3.1 22 7 2 6 28% 6881 71980 13030 37%
c w 21.43 29 192 0 24 6271 22 80001 13734 3.1 22 7 2 6 28% 6881 71980 13030 37%
c x 21.57 29 192 0 24 6271 22 80001 13732 3.1 22 7 2 6 28% 6882 69309 13030 37%
c = 22.03 29 192 0 24 6271 22 80001 13732 3.1 22 7 2 6 28% 7282 69307 12830 37%
c d 22.04 29 192 0 24 6271 22 80001 13618 3.1 22 7 2 6 28% 6864 69307 12830 37%
c t 22.05 29 192 0 24 6271 22 80001 13618 3.1 22 7 2 6 28% 6863 69307 12830 37%
c - 22.67 29 190 0 25 6479 22 81639 12129 3.1 22 7 1 6 28% 6879 69307 12830 37%
c - 23.93 29 185 0 26 7032 22 86640 14090 3.1 22 7 1 6 28% 6897 69307 12830 37%
c - 24.47 29 188 0 27 7291 21 91741 15687 3.0 22 7 1 5 27% 6933 69306 12830 37%
c s 25.11 29 188 0 27 7600 21 95835 19282 3.0 22 7 1 5 27% 6972 68173 12830 37%
c e 25.22 29 188 0 27 7600 21 95835 19282 3.0 22 7 1 5 27% 4828 73822 11647 33%
c s 25.24 29 188 0 27 7600 21 95835 19282 3.0 22 7 1 5 27% 4828 73550 11647 33%
c e 25.26 29 188 0 27 7600 21 95835 19282 3.0 22 7 1 5 27% 4826 73639 11615 33%
c ^ 25.26 29 188 0 27 7600 21 95835 19282 3.0 22 7 1 5 27% 4826 73639 11615 33%
c - 25.55 29 187 0 28 7712 21 96939 14502 3.0 22 7 1 5 27% 4836 73639 11615 33%
c - 26.87 29 182 0 29 8309 21 102232 16396 3.0 22 7 1 5 27% 4861 73639 11615 33%
c d 27.50 29 181 0 29 8589 22 104664 18630 3.0 22 7 1 5 28% 4837 73639 11599 33%
c u 27.56 29 181 0 29 8589 22 104664 16686 3.0 22 7 1 5 28% 4860 73639 11599 33%
c v 27.66 29 181 0 29 8589 22 104664 13864 3.0 22 7 1 5 28% 4864 73639 11599 33%
c w 27.85 29 181 0 29 8589 22 104664 13804 3.0 22 7 1 5 28% 4864 73639 11599 33%
c
c  seconds   switched     rate          size/glue tier1    binary         remaining
c         MB   reductions   conflicts         size  tier2     irredundant
c           level   restarts       redundant    glue   trail         variables
c
c x 27.96 29 181 0 29 8589 22 104664 13804 3.0 22 7 1 5 28% 4864 73462 11599 33%
c = 28.47 29 181 0 29 8589 22 104664 13804 3.0 22 7 1 5 28% 5032 73462 11515 33%
c d 28.48 29 181 0 29 8589 22 104664 13702 3.0 22 7 1 5 28% 4824 73462 11509 33%
c t 28.49 29 181 0 29 8589 22 104664 13702 3.0 22 7 1 5 28% 4819 73462 11509 33%
c u 28.63 29 181 0 29 8589 22 104664 13219 3.0 22 7 1 5 28% 4822 73462 11509 33%
c v 28.69 29 181 0 29 8589 22 104664 12686 3.0 22 7 1 5 28% 4824 73462 11509 33%
c w 28.93 29 181 0 29 8589 22 104664 12276 3.0 22 7 1 5 28% 4824 73462 11509 33%
c = 29.46 29 181 0 29 8589 22 104664 12276 3.0 22 7 1 5 28% 4830 73462 11506 33%
c d 29.46 29 181 0 29 8589 22 104664 12267 3.0 22 7 1 5 28% 4822 73462 11505 33%
c - 30.15 29 178 0 30 8866 21 107618 12737 2.9 21 7 1 5 28% 4833 73462 11505 33%
c o 30.79 29 177 0 30 9208 22 110194 15116 2.9 22 7 1 5 28% 4848 73462 11505 33%
c - 31.44 29 175 0 31 9542 22 113095 15162 2.9 22 7 1 5 28% 4880 73462 11505 33%
c - 32.65 29 173 0 32 10082 22 118662 17263 2.9 22 7 1 5 28% 4899 73462 11505 33%
c - 33.96 29 173 0 33 10624 21 124318 18837 2.9 22 8 1 5 28% 4913 73461 11505 33%
c - 35.39 29 173 0 34 11195 22 130062 20206 2.9 22 8 1 5 28% 4933 73461 11505 33%
c c 36.21 29 172 0 34 11558 22 132947 22868 2.9 22 8 1 5 28% 5009 72953 11413 33%
c d 36.22 29 172 0 34 11558 22 132947 22607 2.9 22 8 1 5 28% 4825 72953 11413 33%
c u 36.31 29 172 0 34 11558 22 132947 20248 2.9 22 8 1 5 28% 4841 72953 11413 33%
c v 36.43 29 172 0 34 11558 22 132947 16960 2.9 22 8 1 5 28% 4851 72953 11413 33%
c w 36.65 29 172 0 34 11558 22 132947 16915 2.9 22 8 1 5 28% 4851 72953 11413 33%
c
c  seconds   switched      rate          size/glue tier1    binary         remaining
c         MB   reductions    conflicts         size  tier2     irredundant
c           level   restarts        redundant    glue   trail         variables
c
c x 36.77 29 172 0 34 11558 22 132947 16915 2.9 22 8 1 5 28% 4851 72910 11413 33%
c = 37.47 29 172 0 34 11558 22 132947 16915 2.9 22 8 1 5 28% 4909 72910 11384 32%
c d 37.47 29 172 0 34 11558 22 132947 16808 2.9 22 8 1 5 28% 4825 72910 11380 32%
c t 37.49 29 172 0 34 11558 22 132947 16808 2.9 22 8 1 5 28% 4824 72910 11380 32%
c u 37.58 29 172 0 34 11558 22 132947 16181 2.9 22 8 1 5 28% 4827 72910 11380 32%
c v 37.65 29 172 0 34 11558 22 132947 15516 2.9 22 8 1 5 28% 4829 72910 11380 32%
c w 37.99 29 172 0 34 11558 22 132947 15034 2.9 22 8 1 5 28% 4829 72910 11380 32%
c = 38.66 29 172 0 34 11558 22 132947 15034 2.9 22 8 1 5 28% 5015 72910 11287 32%
c d 38.67 29 172 0 34 11558 22 132947 14933 2.9 22 8 1 5 28% 4807 72910 11286 32%
c - 39.04 29 170 0 35 11725 21 135892 15011 2.9 22 8 1 5 28% 4810 72909 11286 32%
c - 39.87 29 168 0 36 12196 21 141808 17528 2.9 22 8 1 5 28% 4837 72909 11286 32%
c - 40.99 29 166 0 37 12880 21 147808 19714 2.9 23 8 1 5 29% 4870 72909 11286 32%
c - 41.96 29 164 0 38 13455 21 153892 21405 2.9 23 8 1 5 29% 4891 72909 11286 32%
c s 42.65 29 162 0 38 13873 21 157983 25227 2.9 24 8 1 5 29% 4914 71807 11286 32%
c e 42.75 29 162 0 38 13873 21 157983 25227 2.9 24 8 1 5 29% 2579 83328 9726 28%
c s 42.78 29 162 0 38 13873 21 157983 25227 2.9 24 8 1 5 29% 2580 82580 9726 28%
c e 42.80 29 162 0 38 13873 21 157983 25227 2.9 24 8 1 5 29% 2542 82814 9682 28%
c ^ 42.80 29 162 0 38 13873 21 157983 25227 2.9 24 8 1 5 29% 2542 82814 9682 28%
c - 43.08 28 161 0 39 13980 21 160057 15897 2.9 23 8 1 5 29% 2547 82814 9682 28%
c o 43.10 28 161 0 39 13998 21 160194 16029 2.9 23 8 1 5 29% 2547 82814 9682 28%
c
c  seconds   switched      rate          size/glue tier1    binary        remaining
c         MB   reductions    conflicts         size  tier2     irredundant
c           level   restarts        redundant    glue   trail        variables
c
c c 43.78 28 159 0 39 14383 21 164966 20352 2.8 23 8 1 5 29% 2586 82605 9658 28%
c d 43.79 28 159 0 39 14383 21 164966 20327 2.8 23 8 1 5 29% 2538 82605 9658 28%
c u 43.83 28 159 0 39 14383 21 164966 18086 2.8 23 8 1 5 29% 2548 82605 9658 28%
c v 43.91 28 159 0 39 14383 21 164966 14961 2.8 23 8 1 5 29% 2550 82605 9658 28%
c w 44.14 28 159 0 39 14383 21 164966 14313 2.8 23 8 1 5 29% 2550 82605 9658 28%
c = 44.66 28 159 0 39 14383 21 164966 14313 2.8 23 8 1 5 29% 2634 82581 9614 27%
c d 44.67 28 159 0 39 14383 21 164966 14224 2.8 23 8 1 5 29% 2534 82581 9614 27%
c t 44.68 28 159 0 39 14383 21 164966 14224 2.8 23 8 1 5 29% 2525 82581 9614 27%
c f 44.79 28 159 0 39 14383 21 164966 14224 2.8 23 8 1 5 29% 2538 82223 9631 27%
c u 44.86 28 159 0 39 14383 21 164966 13876 2.8 23 8 1 5 29% 2538 82223 9631 27%
c v 44.90 28 159 0 39 14383 21 164966 13423 2.8 23 8 1 5 29% 2538 82223 9631 27%
c w 45.07 28 159 0 39 14383 21 164966 13204 2.8 23 8 1 5 29% 2538 82223 9631 27%
c x 45.18 28 159 0 39 14383 21 164966 13192 2.8 23 8 1 5 29% 2538 80580 9631 27%
c = 45.71 28 159 0 39 14383 21 164966 13192 2.8 23 8 1 5 29% 2572 80580 9614 27%
c d 45.72 28 159 0 39 14383 21 164966 13174 2.8 23 8 1 5 29% 2532 80580 9614 27%
c - 45.90 28 158 0 40 14478 21 166303 12228 2.8 23 8 1 5 29% 2534 80580 9614 27%
c - 46.66 28 155 0 41 14922 20 172627 15308 2.8 23 8 1 5 29% 2537 80580 9614 27%
c - 47.41 28 153 0 42 15437 20 179030 17819 2.7 22 8 1 5 29% 2543 80580 9614 27%
c - 48.26 28 150 0 43 15969 20 185511 19441 2.7 22 8 1 5 29% 2545 80580 9614 27%
c i 48.43 28 149 0 43 16081 20 187375 21080 2.7 22 8 1 5 29% 2553 80580 9613 27%
c
c  seconds   switched      rate          size/glue tier1    binary        remaining
c         MB   reductions    conflicts         size  tier2     irredundant
c           level   restarts        redundant    glue   trail        variables
c
c - 48.99 28 148 0 44 16438 19 192068 20617 2.7 22 8 1 5 29% 2558 80579 9613 27%
c i 49.21 28 146 0 44 16594 19 193976 22328 2.7 22 8 1 5 28% 2565 80579 9612 27%
c i 49.55 28 146 0 44 16840 19 197111 25125 2.6 22 8 1 5 28% 2571 80578 9611 27%
c - 49.77 28 145 0 45 16983 19 198704 21592 2.6 22 8 1 5 28% 2565 80578 9611 27%
c i 49.86 28 145 0 45 17030 19 199731 22477 2.6 22 8 1 5 28% 2575 80578 9610 27%
c d 49.97 28 144 0 45 17092 19 200783 23392 2.6 22 8 1 5 28% 2570 80514 9604 27%
c b 49.98 28 144 0 45 17092 19 200783 23392 2.6 22 8 1 5 28% 2570 80514 9591 27%
c u 50.02 28 144 0 45 17092 19 200783 21003 2.6 22 8 1 5 28% 2606 80514 9590 27%
c v 50.11 28 144 0 45 17092 19 200783 16743 2.6 22 8 1 5 28% 2612 80514 9589 27%
c w 50.21 28 144 0 45 17092 19 200783 16226 2.6 22 8 1 5 28% 2608 80514 9589 27%
c = 50.71 28 144 0 45 17092 19 200783 16226 2.6 22 8 1 5 28% 2680 80191 9545 27%
c d 50.71 28 144 0 45 17092 19 200783 16097 2.6 22 8 1 5 28% 2591 80191 9544 27%
c t 50.72 28 144 0 45 17092 19 200783 16097 2.6 22 8 1 5 28% 2583 80191 9544 27%
c c 50.76 28 144 0 45 17092 19 200783 16097 2.6 22 8 1 5 28% 2550 80172 9542 27%
c d 50.76 28 144 0 45 17092 19 200783 16092 2.6 22 8 1 5 28% 2546 80172 9542 27%
c u 50.80 28 144 0 45 17092 19 200783 15490 2.6 22 8 1 5 28% 2554 80172 9540 27%
c v 50.85 28 144 0 45 17092 19 200783 14787 2.6 22 8 1 5 28% 2556 80172 9539 27%
c w 50.92 28 144 0 45 17092 19 200783 14655 2.6 22 8 1 5 28% 2556 80172 9539 27%
c x 51.03 28 144 0 45 17092 19 200783 14654 2.6 22 8 1 5 28% 2556 80087 9539 27%
c = 51.54 28 144 0 45 17092 19 200783 14654 2.6 22 8 1 5 28% 2618 79967 9500 27%
c
c  seconds   switched      rate          size/glue tier1    binary        remaining
c         MB   reductions    conflicts         size  tier2     irredundant
c           level   restarts        redundant    glue   trail        variables
c
c d 51.54 28 144 0 45 17092 19 200783 14530 2.6 22 8 1 5 28% 2545 79967 9499 27%
c t 51.55 28 144 0 45 17092 19 200783 14530 2.6 22 8 1 5 28% 2543 79967 9499 27%
c i 51.56 28 144 0 45 17092 19 200783 14530 2.6 22 8 1 5 28% 2543 79967 9499 27%
c i 51.59 28 144 0 45 17112 19 201124 14829 2.6 22 8 1 5 28% 2546 79965 9498 27%
c - 51.82 28 141 0 46 17408 18 205413 15202 2.6 22 8 1 5 27% 2530 79964 9498 27%
c i 51.82 28 141 0 46 17409 18 205438 15209 2.6 22 8 1 5 27% 2531 79964 9497 27%
c i 51.84 28 141 0 46 17432 18 205931 15616 2.6 22 8 1 5 27% 2533 79964 9496 27%
c - 52.08 28 136 0 47 17763 18 212195 17018 2.6 21 8 1 5 26% 2560 79964 9496 27%
c i 52.08 28 135 0 47 17763 18 212887 17489 2.6 21 8 1 5 26% 2577 79964 9495 27%
c i 52.15 28 134 0 47 17865 17 214281 18691 2.6 21 8 1 5 26% 2589 79964 9494 27%
c i 52.17 28 133 0 47 17886 17 215287 19485 2.6 21 8 1 5 26% 2601 79964 9493 27%
c i 52.19 28 132 0 47 17905 17 216283 20216 2.6 21 8 1 5 26% 2607 79964 9492 27%
c i 52.19 28 132 0 47 17905 17 216314 20228 2.6 21 8 1 5 26% 2611 79964 9491 27%
c i 52.19 28 132 0 47 17905 17 216318 20228 2.6 21 8 1 5 26% 2614 79964 9490 27%
c i 52.19 28 132 0 47 17905 17 216327 20230 2.6 21 8 1 5 26% 2617 79964 9486 27%
c } 52.19 28 132 0 47 17905 17 216329 20230 2.6 21 8 1 5 26% 2617 79964 9483 27%
c 0 52.19 28 132 0 47 17905 17 216329 20230 2.6 21 8 1 5 26% 2617 79964 9483 27%
c
c ---- [ result ] ------------------------------------------------------------
c
s UNSATISFIABLE
c
c ---- [ profiling ] ---------------------------------------------------------
c
c          36.24   69.44 %  search
c          36.24   69.44 %  focused
c          15.42   29.55 %  simplify
c          14.91   28.58 %  probe
c           7.33   14.05 %  sweep
c           5.42   10.39 %  vivify
c           0.80    1.53 %  eliminate
c           0.77    1.48 %  factor
c           0.64    1.22 %  congruence
c           0.56    1.07 %  substitute
c           0.44    0.85 %  preprocess
c           0.25    0.48 %  reduce
c           0.14    0.28 %  subsume
c           0.14    0.27 %  fastel
c           0.13    0.25 %  transitive
c           0.07    0.13 %  backbone
c           0.05    0.09 %  lucky
c           0.03    0.07 %  parse
c =============================================
c          52.19  100.00 %  total
c
c ---- [ statistics ] --------------------------------------------------------
c
c chronological:                         5155                2 %  conflicts
c conflicts:                           216329             4145.21 per second
c congruent:                             3745               11 %  variables
c decisions:                          3993223               18.46 per conflict
c eliminated:                           19016               54 %  variables
c factored:                              3441               10 %  variables
c fast_eliminated:                      10883               57 %  eliminated
c fast_subsumed:                           59                0 %  per subsumed
c iterations:                              15                0 %  variables
c propagations:                     174414742          3342063    per second
c reductions:                              47             4603    interval
c reordered:                                6            36055    interval
c restarts:                             17905               12    interval
c strengthened:                          4384                0 %  checks
c substituted:                           9923               28 %  variables
c subsumed:                             13684                0 %  checks
c switched:                                 0                0    interval
c vivified:                             95107               14 %  checks
c
c ---- [ glue usage ] --------------------------------------------------------
c
c focused glue 1 used 385062 clauses 60.49% accumulated 60.49% tier1
c focused glue 2 used 120608 clauses 18.95% accumulated 79.43%
c focused glue 3 used  38995 clauses  6.13% accumulated 85.56%
c focused glue 4 used  22507 clauses  3.54% accumulated 89.09%
c focused glue 5 used  14793 clauses  2.32% accumulated 91.42% tier2
c
c ---- [ resources ] ---------------------------------------------------------
c
c maximum-resident-set-size:         30363648 bytes         29 MB
c process-time:                            52s              52.19 seconds
c
c ---- [ shutting down ] -----------------------------------------------------
c
c exit 20
